; benchmark generated from python API
(set-info :status unknown)
(declare-fun S_1 () Real)
(declare-fun S_2 () Real)
(declare-fun S_3 () Real)
(declare-fun S_4 () Real)
(declare-fun A_1 () Real)
(declare-fun B () Real)
(declare-fun L_1 () Real)
(declare-fun L_2 () Real)
(declare-fun A_2 () Real)
(declare-fun A_3 () Real)
(declare-fun S_0 () Real)
(declare-fun A_4 () Real)
(declare-fun L_0 () Real)
(declare-fun A_0 () Real)
(assert
 (let (($x1937 (<= (+ (* (- 1.0) S_2) (* (- 1.0) L_1) (* (- 1.0) B) A_1) 0.0)))
 (let (($x1425 (<= (+ A_0 (* (- 1.0) S_1) (* (- 1.0) B) (* (- 1.0) L_1)) 0.0)))
 (let (($x1411 (<= (+ (* (- 1.0) S_3) (* (- 1.0) B) (* (- 1.0) L_2) A_2) 0.0)))
 (let (($x807 (not (<= B 0.0))))
 (let ((?x815 (* (- 1.0) B)))
 (let ((?x784 (* (- 1.0) L_1)))
 (let ((?x5608 (* (/ 1.0 2.0) L_0)))
 (let ((?x5996 (* (- (/ 1.0 2.0)) S_3)))
 (let ((?x5660 (* (- (/ 1.0 2.0)) A_0)))
 (let (($x2708 (<= (+ A_2 (* (- 1.0) L_2) (* (- 1.0) S_3)) 0.0)))
 (let ((?x15840 (* (/ 2.0 3.0) A_3)))
 (let ((?x17235 (* (- (/ 2.0 3.0)) B)))
 (let ((?x1409 (* (- 1.0) S_3)))
 (let ((?x4879 (* (- (/ 2.0 3.0)) A_4)))
 (let ((?x11358 (* (- (/ 1.0 3.0)) L_0)))
 (let ((?x10693 (* (/ 1.0 3.0) A_0)))
 (let ((?x8077 (* (/ 2.0 3.0) S_4)))
 (let ((?x7605 (* (/ 1.0 2.0) A_3)))
 (let ((?x7606 (* (- (/ 1.0 2.0)) B)))
 (let ((?x7611 (* (- (/ 1.0 2.0)) A_4)))
 (let ((?x4674 (* (/ 1.0 2.0) S_4)))
 (let ((?x4638 (* (/ 1.0 2.0) A_1)))
 (let ((?x4692 (* (- (/ 1.0 2.0)) L_1)))
 (let (($x19261 (or $x2708 (<= (+ ?x4692 ?x4638 ?x4674 ?x7611 ?x1409 ?x7606 ?x7605) 0.0) (<= (+ ?x8077 ?x10693 ?x11358 ?x4879 ?x1409 ?x17235 ?x15840) 0.0))))
 (let ((?x16352 (* (/ 1.0 3.0) A_3)))
 (let ((?x16752 (* (- (/ 1.0 3.0)) B)))
 (let ((?x1593 (* (- 1.0) S_2)))
 (let ((?x4927 (* (- (/ 1.0 3.0)) A_4)))
 (let ((?x10615 (* (- (/ 2.0 3.0)) L_0)))
 (let ((?x11131 (* (/ 2.0 3.0) A_0)))
 (let ((?x8121 (* (/ 1.0 3.0) S_4)))
 (let (($x1752 (<= (+ ?x784 A_1 ?x1593) 0.0)))
 (let (($x12504 (<= (+ (* (- (/ 2.0 3.0)) S_4) (* (- (/ 1.0 3.0)) A_0) (* (/ 1.0 3.0) L_0) S_2) 0.0)))
 (let (($x2617 (<= (+ A_3 (* (- 1.0) S_4) (* (- 1.0) L_2)) 0.0)))
 (let ((?x842 (* (- 1.0) A_0)))
 (let ((?x1765 (* (- 1.0) S_4)))
 (let ((?x793 (* (- 1.0) L_2)))
 (let (($x12308 (<= (+ (* (- (/ 1.0 3.0)) S_4) (* (- (/ 2.0 3.0)) A_0) (* (/ 2.0 3.0) L_0) S_1) 0.0)))
 (let (($x38962 (or $x2617 (<= (+ ?x4692 ?x4638 (* (- (/ 1.0 2.0)) S_4)) (- 5.0)) (<= (+ A_2 ?x793 ?x1765) (- 5.0)) (<= (+ (* (- (/ 1.0 3.0)) S_4) ?x10693 ?x11358) (- 5.0)))))
 (let ((?x10694 (* (/ 2.0 3.0) L_0)))
 (let ((?x9707 (* (- (/ 2.0 3.0)) A_0)))
 (let ((?x8120 (* (- (/ 1.0 3.0)) S_4)))
 (let (($x12528 (<= (+ ?x8120 ?x9707 ?x10694 ?x784 ?x815 A_1) 0.0)))
 (let (($x39789 (or $x2617 (<= (+ A_2 ?x793 ?x1765 ?x842 L_0 ?x815 ?x784 A_1) 0.0) $x12528)))
 (let (($x18330 (or $x2708 (<= (+ ?x4674 (* (/ 1.0 2.0) A_0) (* (- (/ 1.0 2.0)) L_0) ?x1409) 0.0) (<= (+ (* (- (/ 2.0 3.0)) L_1) (* (/ 2.0 3.0) A_1) ?x8121 ?x1409) 0.0))))
 (let (($x6627 (<= (+ (* 3.0 A_2) (* (- 3.0) L_2) (* (- 2.0) S_4) L_0 ?x842) 0.0)))
 (let ((?x1978 (* (- 4.0) A_1)))
 (let ((?x1976 (* 4.0 B)))
 (let ((?x2669 (* 4.0 L_1)))
 (let ((?x1571 (* (- 3.0) L_0)))
 (let ((?x1570 (* 3.0 A_0)))
 (let (($x1430 (<= (+ ?x842 S_0 B L_1) 0.0)))
 (let ((?x775 (* (- 1.0) L_0)))
 (let (($x710 (= ?x784 ?x775)))
 (let ((?x787 (* (- 1.0) A_1)))
 (let ((?x841 (* (- 1.0) A_4)))
 (let ((?x796 (* (- 1.0) A_2)))
 (let (($x39749 (or $x710 $x1430 (<= (+ ?x796 L_2 S_4 ?x841 A_0 ?x775 L_1 ?x787 A_3) 0.0))))
 (let ((?x1988 (* (- 3.0) A_1)))
 (let ((?x1328 (* 2.0 B)))
 (let ((?x1773 (* 3.0 L_1)))
 (let ((?x1578 (* (- 2.0) L_0)))
 (let ((?x1983 (* 2.0 A_0)))
 (let (($x39275 (or $x710 $x1430 (<= (+ S_4 ?x1983 ?x1578 ?x841 ?x1773 ?x1328 ?x1988 A_3) 0.0))))
 (let (($x4215 (<= (+ (* (- 1.0) A_3) S_4 A_0 ?x775 B L_1 L_2 ?x787) 0.0)))
 (let ((?x5700 (* (- (/ 1.0 2.0)) L_0)))
 (let ((?x4138 (* (/ 1.0 2.0) A_0)))
 (let ((?x805 (* (- 1.0) A_3)))
 (let (($x16803 (or $x2708 (<= (+ ?x805 S_4 A_1 ?x1409) 0.0) (<= (+ ?x805 S_4 ?x4138 ?x5996 ?x5700 L_1) 0.0))))
 (let (($x39162 (or $x710 $x1430 (<= (+ ?x1983 ?x1578 S_3 ?x1773 (* 3.0 B) ?x1988) 0.0))))
 (let (($x11784 (or $x1752 (<= (+ ?x796 L_2 S_4 ?x1983 (* (- 2.0) S_2) ?x1578) 0.0))))
 (let (($x16089 (or $x1752 (<= (+ ?x796 L_2 S_4 ?x841 A_0 ?x1593 ?x775 ?x815 A_3) 0.0))))
 (let (($x1967 (<= (+ ?x784 L_2) 0.0)))
 (let (($x1713 (<= (+ ?x784 A_1 S_3 ?x1328 (* 2.0 L_2) (* (- 2.0) A_2)) 0.0)))
 (let (($x23793 (or $x1713 $x1967 (<= (+ ?x11131 ?x10615 (* (/ 1.0 3.0) S_3) L_1 ?x787) 0.0))))
 (let (($x1793 (<= (+ (* (- 2.0) L_1) (* 2.0 A_1) B L_0 L_2 ?x842 ?x796) 0.0)))
 (let (($x1746 (not $x1793)))
 (let (($x38797 (or $x1746 $x1967 (<= (+ ?x805 S_4 ?x784 A_1 B (* 2.0 L_2) ?x796) 0.0))))
 (let ((?x1414 (* 3.0 L_2)))
 (let ((?x1609 (* 2.0 S_4)))
 (let ((?x1465 (* (- 2.0) A_3)))
 (let ((?x1295 (* (- 2.0) A_2)))
 (let ((?x1394 (* 2.0 L_2)))
 (let (($x7102 (<= (+ ?x784 A_1 S_4 ?x841 ?x1394 B ?x1295 A_3) 0.0)))
 (let ((?x1446 (* 2.0 A_3)))
 (let ((?x1415 (* (- 3.0) A_2)))
 (let ((?x1442 (* (- 2.0) A_4)))
 (let (($x38378 (or $x1793 $x1967 (<= (+ ?x1609 A_0 ?x775 ?x1442 ?x1414 B ?x1415 ?x1446) 0.0))))
 (let (($x6389 (<= (+ (* (/ 1.0 4.0) S_4) (* (/ 3.0 4.0) A_0) (* (- (/ 3.0 4.0)) L_0) L_1 ?x787) 0.0)))
 (let (($x1463 (<= (+ A_0 ?x775 ?x815 (* 2.0 L_1) ?x793 (* (- 2.0) A_1) A_2) 0.0)))
 (let (($x1307 (not $x1463)))
 (let (($x6351 (<= (+ (* (/ 1.0 4.0) S_4) (* (/ 3.0 4.0) A_0) (* (- (/ 3.0 4.0)) L_0) ?x1593) 0.0)))
 (let ((?x1461 (* (- 2.0) A_1)))
 (let ((?x1460 (* 2.0 L_1)))
 (let (($x24559 (or $x710 $x1430 (<= (+ ?x796 L_2 S_4 ?x1983 ?x1578 ?x1328 ?x1460 ?x1461) 0.0))))
 (let (($x26250 (or $x710 $x1430 (<= (+ ?x796 L_2 S_3 A_0 ?x775 B L_1 ?x787) 0.0))))
 (let ((?x1413 (* 3.0 B)))
 (let ((?x1443 (* 2.0 A_1)))
 (let ((?x1453 (* (- 2.0) L_1)))
 (let (($x6077 (<= (+ ?x4138 ?x5996 ?x5700) (- 5.0))))
 (let (($x4695 (<= (+ (* (/ 1.0 2.0) L_1) (* (- (/ 1.0 2.0)) A_1) (* (- (/ 1.0 2.0)) S_4) S_2) 0.0)))
 (let (($x23979 (or (<= (+ A_0 ?x775 (* 2.0 S_3) ?x1413 ?x1414 ?x1415) 0.0) $x1793 $x1967)))
 (let ((?x1335 (* 3.0 A_2)))
 (let ((?x1367 (* (- 3.0) L_2)))
 (let ((?x1406 (* (- 2.0) S_4)))
 (let ((?x4669 (* (- (/ 1.0 2.0)) S_4)))
 (let ((?x4649 (* (- (/ 1.0 2.0)) A_1)))
 (let ((?x4648 (* (/ 1.0 2.0) L_1)))
 (let (($x22926 (or (<= (+ ?x842 L_0 (* 2.0 S_1) B L_2 ?x796) 0.0) $x1967)))
 (let (($x835 (or $x1307 (<= (+ A_0 ?x775 (* (- 2.0) S_2) ?x815 ?x793 A_2) 0.0))))
 (let (($x41 (>= A_1 A_0)))
 (let (($x42 (>= A_2 A_1)))
 (let (($x43 (>= A_3 A_2)))
 (let (($x44 (>= A_4 A_3)))
 (and (<= ?x784 ?x775) $x44 $x43 $x42 $x41 $x835 (<= ?x793 ?x784) (or $x710 $x1430 (<= (+ S_1 L_1 B ?x787) 0.0)) (or (<= (+ S_2 B L_2 ?x796) 0.0) $x1967) $x22926 (or (<= (+ A_0 ?x775 B L_2 ?x796) (- 10.0)) $x1793 $x1967) (or $x1463 $x1752) (or (<= (+ ?x784 A_1 B L_2 ?x796) (- 5.0)) $x1746 $x1967) (or (<= (+ ?x842 L_0 ?x815 ?x1453 L_2 ?x1443 ?x796) 0.0) $x1967) (or $x2617 (<= (+ ?x4648 ?x4649 ?x4669 ?x793 ?x815 A_2) 0.0)) (or (<= (+ ?x1406 ?x842 L_0 (* (- 3.0) B) ?x1367 ?x1335) 0.0) $x2617) $x23979 (or $x710 $x1430 (<= (+ A_0 ?x775 L_1 B ?x787) (- 5.0))) (or $x710 $x1430 (<= (+ A_0 ?x775 S_2 ?x1460 ?x1328 ?x1461) 0.0)) (or $x2617 $x4695) (or $x710 $x1430 (<= (+ A_0 ?x775 ?x1460 ?x793 B ?x1461 A_2) 0.0)) (or $x2708 (<= (+ ?x784 A_1 ?x1409) (- 5.0)) $x6077) (or $x2708 (<= (+ ?x5660 ?x5996 ?x5608 S_1) 0.0)) (or $x1463 (<= (+ ?x1453 ?x1443 S_4 ?x1413 ?x1414 ?x1415) 0.0) $x1967) (or $x1463 $x1967 $x7102) $x26250 $x24559 (or $x1752 (<= (+ ?x796 L_2 S_3 A_0 ?x1593 ?x775) 0.0)) (or $x1752 $x6351) (or (<= (+ S_4 A_0 ?x775 ?x1328 ?x1394 ?x1295) 0.0) $x1793 $x1967) (or $x1307 $x1967 $x6389) $x38378 (or $x1746 $x1967 $x7102) (or $x1793 $x1967 (<= (+ ?x1465 ?x1609 A_0 ?x775 B ?x1414 ?x796) 0.0)) $x38797 (or $x1752 (<= (+ A_0 ?x1593 ?x775) (- 5.0))) $x23793 $x16089 $x11784 $x39162 (or $x1752 (<= (+ ?x805 S_4 A_0 ?x1593 ?x775 L_1) 0.0)) $x16803 (or $x710 $x1430 $x4215) (or $x1752 (<= (+ ?x11131 ?x10615 (* (/ 1.0 3.0) S_3) ?x1593) 0.0)) $x39275 $x39749 (or $x710 $x1430 (<= (+ S_4 ?x1570 ?x1571 ?x2669 ?x1976 ?x1978) 0.0)) (or $x2617 $x6627 $x12528) (or $x2617 $x6627 $x12308) $x18330 $x39789 $x38962 (or $x2617 $x12308 (<= (+ A_2 ?x793 ?x1765 ?x842 L_0 S_1) 0.0)) (or $x2617 $x12504) (or $x1752 (<= (+ ?x8121 ?x11131 ?x10615 ?x4927 ?x1593 ?x16752 ?x16352) 0.0)) $x19261 (or $x2708 (<= (+ ?x5660 ?x5996 ?x5608 ?x784 ?x815 A_1) 0.0)) $x807 $x1411 $x1425 (<= (+ L_1 ?x787 S_1) 0.0) (<= (+ ?x842 L_0 S_0) 0.0) (<= (+ S_4 ?x841 L_2) 0.0) (<= (+ (* (- 1.0) S_1) S_0) 0.0) (<= (+ ?x805 S_3 L_2) 0.0) (<= (+ ?x796 L_2 S_2) 0.0) (<= (+ ?x1409 S_2) 0.0) $x1937 (<= (+ ?x1765 S_3) 0.0) (<= (+ ?x1593 S_1) 0.0)))))))))))))))))))))))))))))))))))))))))))))))))))))))))))))))))))))))))))))))))))))))))))))))))))))))))))))))))))))
(check-sat)
